tsp_instances/TSP20/instance70.tsp
NODE_COORD_SECTION
0 40 133
1 15 120
2 168 76
3 99 68
4 65 31
5 200 196
6 185 27
7 186 128
8 144 65
9 147 94
10 139 103
11 191 2
12 103 92
13 14 135
14 73 84
15 183 10
16 34 165
17 134 35
18 20 98
19 42 67
