tsp_instances/TSP20/instance70.opt.tour
TOUR_SECTION
1
15
4
13
11
10
6
8
3
9
7
12
16
18
5
20
19
2
14
17
-1